SLURM_JOB_ID: 55404293
SLURM_JOB_USER: vsc34888
SLURM_JOB_ACCOUNT: lp_elect_gen_modeling
SLURM_JOB_NAME: RTS24_mod1_FYOP_loop
SLURM_CLUSTER_NAME: genius
SLURM_JOB_PARTITION: batch
SLURM_NNODES: 1
SLURM_NODELIST: r22i27n19
SLURM_JOB_CPUS_PER_NODE: 36
Date: Mon Dec  4 13:15:24 CET 2023
Walltime: 00-06:00:00
========================================================================
Activation OK
Starting runs

 #### Academic research license - for non-commercial use only #### 

Reading    input data                 ...  0 s
Setting up input data                 ...  11 s
Generating objective function         ...  12 s
Generating operation & investment     ...  0 s
Generating balance                    ...  24 s
Generating storage operation          ...  0 s
Generating generation commitment      ...  16 s
Generating generation capacity        ...  3 s
Generating network    capacity        ...  13 s
Generating network    constraints     ...  35 s
Econometric analysis  constraints     ...  0 s
Reading investment decisions from: ../D.Representative_days_based_on_RES_and_Demand/RTS24_mod1_ByStages_nc250/3.Out/oT_Result_NetworkInvestment_RTS24_mod1_ByStages_nc250.csv
Set parameter Username
Set parameter TokenServer to value "SET-S-ME-LM3.luna.kuleuven.be"
Read LP format model from file /tmp/tmp08r53f3_.pyomo.lp
Reading time = 8.14 seconds
x1: 3101283 rows, 2092826 columns, 7721626 nonzeros
Set parameter QCPDual to value 1
Set parameter LogFile to value "RTS24_mod1/openStarNet_RTS24_mod1.log"
Set parameter Method to value 2
Set parameter MIPFocus to value 1
Set parameter Presolve to value 2
Set parameter RINS to value 100
Set parameter MIPGap to value 0.01
Set parameter Threads to value 36
Set parameter TimeLimit to value 259200
Set parameter IterationLimit to value 760000000
Gurobi Optimizer version 9.5.0 build v9.5.0rc5 (linux64)
Thread count: 36 physical cores, 36 logical processors, using up to 36 threads
Optimize a model with 3101283 rows, 2092826 columns and 7721626 nonzeros
Model fingerprint: 0x5b8b9a9e
Coefficient statistics:
  Matrix range     [8e-05, 3e+02]
  Objective range  [1e+00, 1e+00]
  Bounds range     [3e-05, 3e+00]
  RHS range        [3e-05, 3e+01]
Presolve removed 2576741 rows and 1185752 columns (presolve time = 5s) ...
Presolve removed 2594213 rows and 1185752 columns
Presolve time: 5.85s
Presolved: 507070 rows, 924546 columns, 2253685 nonzeros

Ordering time: 0.06s

Barrier statistics:
 AA' NZ     : 1.192e+06
 Factor NZ  : 4.266e+06 (roughly 500 MB of memory)
 Factor Ops : 5.515e+07 (less than 1 second per iteration)
 Threads    : 36

                  Objective                Residual
Iter       Primal          Dual         Primal    Dual     Compl     Time
   0   5.17019849e+06 -6.77375998e+07  8.67e+01 2.53e+00  7.89e+02     9s
   1   3.78079189e+05 -4.85672387e+07  5.71e+00 1.69e+00  7.65e+01     9s
   2   7.40947894e+04 -1.26162549e+07  9.03e-01 3.48e-02  1.29e+01    10s
   3   3.26961152e+04 -2.66377768e+06  1.51e-01 5.66e-14  2.14e+00    10s
   4   2.31166540e+04 -4.52634059e+05  1.69e-02 4.97e-14  3.20e-01    10s
   5   1.06402698e+04 -1.80106388e+05  6.66e-04 3.12e-14  1.23e-01    10s
   6   5.39276068e+03 -2.94234895e+04  1.46e-04 3.05e-14  2.24e-02    10s
   7   1.15797547e+03 -3.05877536e+03  2.08e-05 1.99e-14  2.72e-03    11s
   8   4.73074830e+02 -1.00250270e+03  3.93e-06 1.42e-14  9.51e-04    11s
   9   2.72904500e+02 -5.13392448e+02  1.18e-06 1.42e-14  5.07e-04    11s
  10   1.93351751e+02 -1.84953318e+02  6.08e-07 1.42e-14  2.44e-04    11s
  11   1.30300867e+02 -1.25587642e+01  2.46e-07 1.42e-14  9.21e-05    11s
  12   9.35747854e+01  5.61184568e+01  6.92e-08 1.42e-14  2.41e-05    12s
  13   8.39813938e+01  7.13999555e+01  2.89e-08 1.42e-14  8.11e-06    12s
  14   7.98253979e+01  7.41441335e+01  1.26e-08 1.42e-14  3.66e-06    12s
  15   7.83198731e+01  7.54911473e+01  6.76e-09 1.42e-14  1.82e-06    12s
  16   7.74142779e+01  7.60578352e+01  3.31e-09 1.42e-14  8.74e-07    12s
  17   7.68969622e+01  7.63146139e+01  1.73e-09 1.42e-14  3.75e-07    12s
  18   7.66114902e+01  7.64547953e+01  7.04e-09 2.13e-14  1.01e-07    13s
  19   7.65461816e+01  7.64944166e+01  8.61e-09 7.11e-15  3.34e-08    13s
  20   7.65223673e+01  7.65153020e+01  1.48e-08 2.84e-14  4.55e-09    13s
  21   7.65197075e+01  7.65181356e+01  3.69e-09 1.42e-14  1.01e-09    13s
  22   7.65187825e+01  7.65187031e+01  5.42e-09 2.84e-14  5.12e-11    14s
  23   7.65187401e+01  7.65187386e+01  5.37e-09 1.42e-14  9.65e-13    14s
  24   7.65187396e+01  7.65187396e+01  9.97e-11 2.84e-14  9.65e-16    14s

Barrier solved model in 24 iterations and 13.94 seconds (11.56 work units)
Optimal objective 7.65187396e+01

Crossover log...

  111947 DPushes remaining with DInf 1.2271596e-02                15s
      33 DPushes remaining with DInf 1.1548150e-02                15s
       0 DPushes remaining with DInf 1.1548150e-02                15s

   44065 PPushes remaining with PInf 0.0000000e+00                15s
       0 PPushes remaining with PInf 0.0000000e+00                20s

  Push phase complete: Pinf 0.0000000e+00, Dinf 3.8437836e-05     20s

Iteration    Objective       Primal Inf.    Dual Inf.      Time
   44509    7.6518740e+01   0.000000e+00   3.843784e-05     21s
   44514    7.6518740e+01   0.000000e+00   0.000000e+00     24s

Use crossover to convert LP symmetric solution to basic solution...
Crossover log...

   11891 DPushes remaining with DInf 0.0000000e+00                25s
       0 DPushes remaining with DInf 0.0000000e+00                28s

   29032 PPushes remaining with PInf 0.0000000e+00                28s
   11288 PPushes remaining with PInf 0.0000000e+00                30s
       0 PPushes remaining with PInf 0.0000000e+00                35s

  Push phase complete: Pinf 0.0000000e+00, Dinf 5.0997664e-01     35s

Iteration    Objective       Primal Inf.    Dual Inf.      Time
   80829    7.6518740e+01   0.000000e+00   5.099766e-01     37s
   80853    7.6518740e+01   0.000000e+00   0.000000e+00     51s

Solved in 80853 iterations and 51.24 seconds (41.79 work units)
Optimal objective  7.651873960e+01
Termination condition:  optimal
# ==========================================================
# = Solver Results                                         =
# ==========================================================
# ----------------------------------------------------------
#   Problem Information
# ----------------------------------------------------------
Problem: 
- Name: x1
  Lower bound: 76.5187395985421
  Upper bound: 76.5187395985421
  Number of objectives: 1
  Number of constraints: 3101283
  Number of variables: 2092826
  Number of binary variables: 0
  Number of integer variables: 0
  Number of continuous variables: 2092826
  Number of nonzeros: 7721626
  Sense: minimize
# ----------------------------------------------------------
#   Solver Information
# ----------------------------------------------------------
Solver: 
- Status: ok
  Return code: 0
  Message: Model was solved to optimality (subject to tolerances), and an optimal solution is available.
  Termination condition: optimal
  Termination message: Model was solved to optimality (subject to tolerances), and an optimal solution is available.
  Wall time: 51.236814975738525
  Error rc: 0
  Time: 77.63418436050415
# ----------------------------------------------------------
#   Solution Information
# ----------------------------------------------------------
Solution: 
- number of solutions: 0
  number of solutions displayed: 0
Solving                               ...  174 s
Objective function value                   76.52 M€
Objective function value                   76.5187395985421
Writing         cost summary results  ...  0 s
Writing         cost summary results  ...  0 s
Writing           investment results  ...  0 s
Reading investment decisions from: ../D.Representative_days_based_on_RES_and_Demand/RTS24_mod1_ByStages_nc300/3.Out/oT_Result_NetworkInvestment_RTS24_mod1_ByStages_nc300.csv
WARNING: Implicitly replacing the Component attribute dual (type=<class
'pyomo.core.base.suffix.Suffix'>) on block 'openStarNet - Open Version of the
StartNetLite Model (Long Term Transmission Expansion Planning) - Version 1.0.0
- January 16, 2023' with a new Component (type=<class
'pyomo.core.base.suffix.Suffix'>). This is usually indicative of a modelling
error. To avoid this warning, use block.del_component() and
block.add_component().
WARNING: Implicitly replacing the Component attribute rc (type=<class
'pyomo.core.base.suffix.Suffix'>) on block 'openStarNet - Open Version of the
StartNetLite Model (Long Term Transmission Expansion Planning) - Version 1.0.0
- January 16, 2023' with a new Component (type=<class
'pyomo.core.base.suffix.Suffix'>). This is usually indicative of a modelling
error. To avoid this warning, use block.del_component() and
block.add_component().
Set parameter Username
Set parameter TokenServer to value "SET-S-ME-LM3.luna.kuleuven.be"
Read LP format model from file /tmp/tmpvyawj1x7.pyomo.lp
Reading time = 8.02 seconds
x1: 3101283 rows, 2092826 columns, 7721626 nonzeros
Set parameter QCPDual to value 1
Set parameter LogFile to value "RTS24_mod1/openStarNet_RTS24_mod1.log"
Set parameter Method to value 2
Set parameter MIPFocus to value 1
Set parameter Presolve to value 2
Set parameter RINS to value 100
Set parameter MIPGap to value 0.01
Set parameter Threads to value 36
Set parameter TimeLimit to value 259200
Set parameter IterationLimit to value 760000000
Gurobi Optimizer version 9.5.0 build v9.5.0rc5 (linux64)
Thread count: 36 physical cores, 36 logical processors, using up to 36 threads
Optimize a model with 3101283 rows, 2092826 columns and 7721626 nonzeros
Model fingerprint: 0xd359fd3b
Coefficient statistics:
  Matrix range     [8e-05, 3e+02]
  Objective range  [1e+00, 1e+00]
  Bounds range     [3e-05, 3e+00]
  RHS range        [3e-05, 2e+01]
Presolve removed 2584661 rows and 1193672 columns (presolve time = 5s) ...
Presolve removed 2602133 rows and 1193672 columns
Presolve time: 5.73s
Presolved: 499150 rows, 916626 columns, 2198437 nonzeros

Ordering time: 0.06s

Barrier statistics:
 AA' NZ     : 1.142e+06
 Factor NZ  : 4.176e+06 (roughly 500 MB of memory)
 Factor Ops : 5.191e+07 (less than 1 second per iteration)
 Threads    : 36

                  Objective                Residual
Iter       Primal          Dual         Primal    Dual     Compl     Time
   0   1.90277591e+06 -1.84209257e+07  2.69e+01 3.14e+00  4.44e+02     9s
   1   1.42068006e+05 -1.10569959e+07  1.69e+00 8.50e-14  4.94e+01     9s
   2   4.67280796e+04 -3.15670784e+06  3.63e-01 9.87e-14  1.10e+01     9s
   3   2.37975594e+04 -4.11358388e+05  2.93e-02 8.53e-14  1.20e+00    10s
   4   1.17467002e+04 -1.42379989e+05  5.14e-03 6.25e-14  4.02e-01    10s
   5   5.15177891e+03 -4.49257784e+04  1.28e-03 4.83e-14  1.29e-01    10s
   6   1.24523408e+03 -1.72705035e+04  1.71e-04 3.41e-14  4.76e-02    10s
   7   4.12330503e+02 -2.34870710e+03  3.80e-12 3.41e-14  7.09e-03    10s
   8   3.15608030e+02 -9.34082681e+02  2.85e-12 2.84e-14  3.21e-03    10s
   9   2.15942438e+02 -3.86123445e+02  2.57e-12 2.84e-14  1.55e-03    11s
  10   1.65219217e+02 -1.43940742e+02  2.01e-12 2.84e-14  7.94e-04    11s
  11   1.16920183e+02 -2.27472112e+01  1.21e-12 2.84e-14  3.59e-04    11s
  12   9.27791995e+01  4.36000027e+01  1.30e-12 2.84e-14  1.26e-04    11s
  13   8.29460233e+01  6.76292210e+01  6.77e-12 2.13e-14  3.94e-05    11s
  14   7.90214383e+01  7.26101699e+01  2.01e-11 1.42e-14  1.65e-05    11s
  15   7.74667339e+01  7.48119058e+01  3.18e-11 2.84e-14  6.82e-06    12s
  16   7.68097251e+01  7.56071085e+01  4.44e-11 2.84e-14  3.09e-06    12s
  17   7.64444656e+01  7.60049067e+01  6.31e-11 2.84e-14  1.13e-06    12s
  18   7.62990870e+01  7.62088624e+01  4.98e-10 2.84e-14  2.32e-07    12s
  19   7.62583534e+01  7.62292480e+01  5.29e-10 1.42e-14  7.48e-08    12s
  20   7.62440608e+01  7.62413953e+01  9.83e-10 2.84e-14  6.85e-09    12s
  21   7.62434331e+01  7.62430902e+01  7.92e-09 2.13e-14  8.81e-10    13s
  22   7.62432998e+01  7.62432948e+01  6.96e-09 2.84e-14  1.28e-11    13s
  23   7.62432973e+01  7.62432973e+01  3.64e-10 2.13e-14  5.49e-15    13s

Barrier solved model in 23 iterations and 12.93 seconds (11.13 work units)
Optimal objective 7.62432973e+01

Crossover log...

  111734 DPushes remaining with DInf 3.6135987e-02                14s
       0 DPushes remaining with DInf 3.6135987e-02                15s

   34553 PPushes remaining with PInf 0.0000000e+00                15s
   19691 PPushes remaining with PInf 0.0000000e+00                15s
       0 PPushes remaining with PInf 0.0000000e+00                19s

  Push phase complete: Pinf 0.0000000e+00, Dinf 2.4430002e-04     19s

Iteration    Objective       Primal Inf.    Dual Inf.      Time
   34902    7.6243297e+01   0.000000e+00   2.443000e-04     20s
   34911    7.6243297e+01   0.000000e+00   0.000000e+00     23s

Use crossover to convert LP symmetric solution to basic solution...
Crossover log...

    5186 DPushes remaining with DInf 0.0000000e+00                25s
     714 DPushes remaining with DInf 0.0000000e+00                26s
       0 DPushes remaining with DInf 0.0000000e+00                27s

   24809 PPushes remaining with PInf 0.0000000e+00                27s
    6082 PPushes remaining with PInf 0.0000000e+00                30s
       0 PPushes remaining with PInf 0.0000000e+00                35s

  Push phase complete: Pinf 0.0000000e+00, Dinf 4.1804424e-13     35s

Iteration    Objective       Primal Inf.    Dual Inf.      Time
   64426    7.6243297e+01   0.000000e+00   0.000000e+00     46s

Solved in 64426 iterations and 45.55 seconds (38.59 work units)
Optimal objective  7.624329730e+01
Termination condition:  optimal
# ==========================================================
# = Solver Results                                         =
# ==========================================================
# ----------------------------------------------------------
#   Problem Information
# ----------------------------------------------------------
Problem: 
- Name: x1
  Lower bound: 76.24329729860493
  Upper bound: 76.24329729860493
  Number of objectives: 1
  Number of constraints: 3101283
  Number of variables: 2092826
  Number of binary variables: 0
  Number of integer variables: 0
  Number of continuous variables: 2092826
  Number of nonzeros: 7721626
  Sense: minimize
# ----------------------------------------------------------
#   Solver Information
# ----------------------------------------------------------
Solver: 
- Status: ok
  Return code: 0
  Message: Model was solved to optimality (subject to tolerances), and an optimal solution is available.
  Termination condition: optimal
  Termination message: Model was solved to optimality (subject to tolerances), and an optimal solution is available.
  Wall time: 45.55077886581421
  Error rc: 0
  Time: 71.19165968894958
# ----------------------------------------------------------
#   Solution Information
# ----------------------------------------------------------
Solution: 
- number of solutions: 0
  number of solutions displayed: 0
Solving                               ...  160 s
Objective function value                   76.24 M€
Objective function value                   76.24329729860493
Writing         cost summary results  ...  0 s
Writing         cost summary results  ...  0 s
Writing           investment results  ...  0 s
Reading investment decisions from: ../D.Representative_days_based_on_RES_and_Demand/RTS24_mod1_ByStages_nc350/3.Out/oT_Result_NetworkInvestment_RTS24_mod1_ByStages_nc350.csv
WARNING: Implicitly replacing the Component attribute dual (type=<class
'pyomo.core.base.suffix.Suffix'>) on block 'openStarNet - Open Version of the
StartNetLite Model (Long Term Transmission Expansion Planning) - Version 1.0.0
- January 16, 2023' with a new Component (type=<class
'pyomo.core.base.suffix.Suffix'>). This is usually indicative of a modelling
error. To avoid this warning, use block.del_component() and
block.add_component().
WARNING: Implicitly replacing the Component attribute rc (type=<class
'pyomo.core.base.suffix.Suffix'>) on block 'openStarNet - Open Version of the
StartNetLite Model (Long Term Transmission Expansion Planning) - Version 1.0.0
- January 16, 2023' with a new Component (type=<class
'pyomo.core.base.suffix.Suffix'>). This is usually indicative of a modelling
error. To avoid this warning, use block.del_component() and
block.add_component().
Set parameter Username
Set parameter TokenServer to value "SET-S-ME-LM3.luna.kuleuven.be"
Read LP format model from file /tmp/tmpg6k5sxwp.pyomo.lp
Reading time = 8.00 seconds
x1: 3101283 rows, 2092826 columns, 7721626 nonzeros
Set parameter QCPDual to value 1
Set parameter LogFile to value "RTS24_mod1/openStarNet_RTS24_mod1.log"
Set parameter Method to value 2
Set parameter MIPFocus to value 1
Set parameter Presolve to value 2
Set parameter RINS to value 100
Set parameter MIPGap to value 0.01
Set parameter Threads to value 36
Set parameter TimeLimit to value 259200
Set parameter IterationLimit to value 760000000
Gurobi Optimizer version 9.5.0 build v9.5.0rc5 (linux64)
Thread count: 36 physical cores, 36 logical processors, using up to 36 threads
Optimize a model with 3101283 rows, 2092826 columns and 7721626 nonzeros
Model fingerprint: 0xd359fd3b
Coefficient statistics:
  Matrix range     [8e-05, 3e+02]
  Objective range  [1e+00, 1e+00]
  Bounds range     [3e-05, 3e+00]
  RHS range        [3e-05, 2e+01]
Presolve removed 2584661 rows and 1193672 columns (presolve time = 5s) ...
Presolve removed 2602133 rows and 1193672 columns
Presolve time: 5.75s
Presolved: 499150 rows, 916626 columns, 2198437 nonzeros

Ordering time: 0.06s

Barrier statistics:
 AA' NZ     : 1.142e+06
 Factor NZ  : 4.176e+06 (roughly 500 MB of memory)
 Factor Ops : 5.191e+07 (less than 1 second per iteration)
 Threads    : 36

                  Objective                Residual
Iter       Primal          Dual         Primal    Dual     Compl     Time
   0   1.90277591e+06 -1.84209257e+07  2.69e+01 3.14e+00  4.44e+02     9s
   1   1.42068006e+05 -1.10569959e+07  1.69e+00 8.50e-14  4.94e+01     9s
   2   4.67280796e+04 -3.15670784e+06  3.63e-01 9.87e-14  1.10e+01     9s
   3   2.37975594e+04 -4.11358388e+05  2.93e-02 8.53e-14  1.20e+00    10s
   4   1.17467002e+04 -1.42379989e+05  5.14e-03 6.25e-14  4.02e-01    10s
   5   5.15177891e+03 -4.49257784e+04  1.28e-03 4.83e-14  1.29e-01    10s
   6   1.24523408e+03 -1.72705035e+04  1.71e-04 3.41e-14  4.76e-02    10s
   7   4.12330503e+02 -2.34870710e+03  3.80e-12 3.41e-14  7.09e-03    11s
   8   3.15608030e+02 -9.34082681e+02  2.85e-12 2.84e-14  3.21e-03    11s
   9   2.15942438e+02 -3.86123445e+02  2.57e-12 2.84e-14  1.55e-03    11s
  10   1.65219217e+02 -1.43940742e+02  2.01e-12 2.84e-14  7.94e-04    11s
  11   1.16920183e+02 -2.27472112e+01  1.21e-12 2.84e-14  3.59e-04    11s
  12   9.27791995e+01  4.36000027e+01  1.30e-12 2.84e-14  1.26e-04    12s
  13   8.29460233e+01  6.76292210e+01  6.77e-12 2.13e-14  3.94e-05    12s
  14   7.90214383e+01  7.26101699e+01  2.01e-11 1.42e-14  1.65e-05    12s
  15   7.74667339e+01  7.48119058e+01  3.18e-11 2.84e-14  6.82e-06    12s
  16   7.68097251e+01  7.56071085e+01  4.44e-11 2.84e-14  3.09e-06    12s
  17   7.64444656e+01  7.60049067e+01  6.31e-11 2.84e-14  1.13e-06    12s
  18   7.62990870e+01  7.62088624e+01  4.98e-10 2.84e-14  2.32e-07    13s
  19   7.62583534e+01  7.62292480e+01  5.29e-10 1.42e-14  7.48e-08    13s
  20   7.62440608e+01  7.62413953e+01  9.83e-10 2.84e-14  6.85e-09    13s
  21   7.62434331e+01  7.62430902e+01  7.92e-09 2.13e-14  8.81e-10    13s
  22   7.62432998e+01  7.62432948e+01  6.96e-09 2.84e-14  1.28e-11    13s
  23   7.62432973e+01  7.62432973e+01  3.64e-10 2.13e-14  5.49e-15    13s

Barrier solved model in 23 iterations and 13.40 seconds (11.13 work units)
Optimal objective 7.62432973e+01

Crossover log...

  111734 DPushes remaining with DInf 3.6135987e-02                14s
       0 DPushes remaining with DInf 3.6135987e-02                15s

   34553 PPushes remaining with PInf 0.0000000e+00                15s
       0 PPushes remaining with PInf 0.0000000e+00                20s

  Push phase complete: Pinf 0.0000000e+00, Dinf 2.4430002e-04     20s

Iteration    Objective       Primal Inf.    Dual Inf.      Time
   34902    7.6243297e+01   0.000000e+00   2.443000e-04     21s
   34911    7.6243297e+01   0.000000e+00   0.000000e+00     24s

Use crossover to convert LP symmetric solution to basic solution...
Crossover log...

    5186 DPushes remaining with DInf 0.0000000e+00                26s
       0 DPushes remaining with DInf 0.0000000e+00                28s

   24809 PPushes remaining with PInf 0.0000000e+00                28s
    9151 PPushes remaining with PInf 0.0000000e+00                31s
      39 PPushes remaining with PInf 0.0000000e+00                35s
       0 PPushes remaining with PInf 0.0000000e+00                36s

  Push phase complete: Pinf 0.0000000e+00, Dinf 4.1804424e-13     36s

Iteration    Objective       Primal Inf.    Dual Inf.      Time
   64426    7.6243297e+01   0.000000e+00   0.000000e+00     47s

Solved in 64426 iterations and 47.32 seconds (38.59 work units)
Optimal objective  7.624329730e+01
Termination condition:  optimal
# ==========================================================
# = Solver Results                                         =
# ==========================================================
# ----------------------------------------------------------
#   Problem Information
# ----------------------------------------------------------
Problem: 
- Name: x1
  Lower bound: 76.24329729860493
  Upper bound: 76.24329729860493
  Number of objectives: 1
  Number of constraints: 3101283
  Number of variables: 2092826
  Number of binary variables: 0
  Number of integer variables: 0
  Number of continuous variables: 2092826
  Number of nonzeros: 7721626
  Sense: minimize
# ----------------------------------------------------------
#   Solver Information
# ----------------------------------------------------------
Solver: 
- Status: ok
  Return code: 0
  Message: Model was solved to optimality (subject to tolerances), and an optimal solution is available.
  Termination condition: optimal
  Termination message: Model was solved to optimality (subject to tolerances), and an optimal solution is available.
  Wall time: 47.316004037857056
  Error rc: 0
  Time: 73.22434902191162
# ----------------------------------------------------------
#   Solution Information
# ----------------------------------------------------------
Solution: 
- number of solutions: 0
  number of solutions displayed: 0
Solving                               ...  173 s
Objective function value                   76.24 M€
Objective function value                   76.24329729860493
Writing         cost summary results  ...  0 s
Writing         cost summary results  ...  0 s
Writing           investment results  ...  0 s
Reading investment decisions from: ../D.Representative_days_based_on_RES_and_Demand/RTS24_mod1_ByStages_nc400/3.Out/oT_Result_NetworkInvestment_RTS24_mod1_ByStages_nc400.csv
WARNING: Implicitly replacing the Component attribute dual (type=<class
'pyomo.core.base.suffix.Suffix'>) on block 'openStarNet - Open Version of the
StartNetLite Model (Long Term Transmission Expansion Planning) - Version 1.0.0
- January 16, 2023' with a new Component (type=<class
'pyomo.core.base.suffix.Suffix'>). This is usually indicative of a modelling
error. To avoid this warning, use block.del_component() and
block.add_component().
WARNING: Implicitly replacing the Component attribute rc (type=<class
'pyomo.core.base.suffix.Suffix'>) on block 'openStarNet - Open Version of the
StartNetLite Model (Long Term Transmission Expansion Planning) - Version 1.0.0
- January 16, 2023' with a new Component (type=<class
'pyomo.core.base.suffix.Suffix'>). This is usually indicative of a modelling
error. To avoid this warning, use block.del_component() and
block.add_component().
Set parameter Username
Set parameter TokenServer to value "SET-S-ME-LM3.luna.kuleuven.be"
Read LP format model from file /tmp/tmpy5o7tnuf.pyomo.lp
Reading time = 8.06 seconds
x1: 3101283 rows, 2092826 columns, 7721626 nonzeros
Set parameter QCPDual to value 1
Set parameter LogFile to value "RTS24_mod1/openStarNet_RTS24_mod1.log"
Set parameter Method to value 2
Set parameter MIPFocus to value 1
Set parameter Presolve to value 2
Set parameter RINS to value 100
Set parameter MIPGap to value 0.01
Set parameter Threads to value 36
Set parameter TimeLimit to value 259200
Set parameter IterationLimit to value 760000000
Gurobi Optimizer version 9.5.0 build v9.5.0rc5 (linux64)
Thread count: 36 physical cores, 36 logical processors, using up to 36 threads
Optimize a model with 3101283 rows, 2092826 columns and 7721626 nonzeros
Model fingerprint: 0xd359fd3b
Coefficient statistics:
  Matrix range     [8e-05, 3e+02]
  Objective range  [1e+00, 1e+00]
  Bounds range     [3e-05, 3e+00]
  RHS range        [3e-05, 2e+01]
Presolve removed 2584661 rows and 1193672 columns (presolve time = 5s) ...
Presolve removed 2602133 rows and 1193672 columns
Presolve time: 5.74s
Presolved: 499150 rows, 916626 columns, 2198437 nonzeros

Ordering time: 0.06s

Barrier statistics:
 AA' NZ     : 1.142e+06
 Factor NZ  : 4.176e+06 (roughly 500 MB of memory)
 Factor Ops : 5.191e+07 (less than 1 second per iteration)
 Threads    : 36

                  Objective                Residual
Iter       Primal          Dual         Primal    Dual     Compl     Time
   0   1.90277591e+06 -1.84209257e+07  2.69e+01 3.14e+00  4.44e+02     9s
   1   1.42068006e+05 -1.10569959e+07  1.69e+00 8.50e-14  4.94e+01     9s
   2   4.67280796e+04 -3.15670784e+06  3.63e-01 9.87e-14  1.10e+01     9s
   3   2.37975594e+04 -4.11358388e+05  2.93e-02 8.53e-14  1.20e+00    10s
   4   1.17467002e+04 -1.42379989e+05  5.14e-03 6.25e-14  4.02e-01    10s
   5   5.15177891e+03 -4.49257784e+04  1.28e-03 4.83e-14  1.29e-01    10s
   6   1.24523408e+03 -1.72705035e+04  1.71e-04 3.41e-14  4.76e-02    10s
   7   4.12330503e+02 -2.34870710e+03  3.80e-12 3.41e-14  7.09e-03    10s
   8   3.15608030e+02 -9.34082681e+02  2.85e-12 2.84e-14  3.21e-03    10s
   9   2.15942438e+02 -3.86123445e+02  2.57e-12 2.84e-14  1.55e-03    11s
  10   1.65219217e+02 -1.43940742e+02  2.01e-12 2.84e-14  7.94e-04    11s
  11   1.16920183e+02 -2.27472112e+01  1.21e-12 2.84e-14  3.59e-04    11s
  12   9.27791995e+01  4.36000027e+01  1.30e-12 2.84e-14  1.26e-04    11s
  13   8.29460233e+01  6.76292210e+01  6.77e-12 2.13e-14  3.94e-05    11s
  14   7.90214383e+01  7.26101699e+01  2.01e-11 1.42e-14  1.65e-05    12s
  15   7.74667339e+01  7.48119058e+01  3.18e-11 2.84e-14  6.82e-06    12s
  16   7.68097251e+01  7.56071085e+01  4.44e-11 2.84e-14  3.09e-06    12s
  17   7.64444656e+01  7.60049067e+01  6.31e-11 2.84e-14  1.13e-06    12s
  18   7.62990870e+01  7.62088624e+01  4.98e-10 2.84e-14  2.32e-07    12s
  19   7.62583534e+01  7.62292480e+01  5.29e-10 1.42e-14  7.48e-08    12s
  20   7.62440608e+01  7.62413953e+01  9.83e-10 2.84e-14  6.85e-09    12s
  21   7.62434331e+01  7.62430902e+01  7.92e-09 2.13e-14  8.81e-10    13s
  22   7.62432998e+01  7.62432948e+01  6.96e-09 2.84e-14  1.28e-11    13s
  23   7.62432973e+01  7.62432973e+01  3.64e-10 2.13e-14  5.49e-15    13s

Barrier solved model in 23 iterations and 12.99 seconds (11.13 work units)
Optimal objective 7.62432973e+01

Crossover log...

  111734 DPushes remaining with DInf 3.6135987e-02                14s
       0 DPushes remaining with DInf 3.6135987e-02                15s

   34553 PPushes remaining with PInf 0.0000000e+00                15s
   19691 PPushes remaining with PInf 0.0000000e+00                15s
       0 PPushes remaining with PInf 0.0000000e+00                19s

  Push phase complete: Pinf 0.0000000e+00, Dinf 2.4430002e-04     19s

Iteration    Objective       Primal Inf.    Dual Inf.      Time
   34902    7.6243297e+01   0.000000e+00   2.443000e-04     20s
   34911    7.6243297e+01   0.000000e+00   0.000000e+00     24s

Use crossover to convert LP symmetric solution to basic solution...
Crossover log...

    5186 DPushes remaining with DInf 0.0000000e+00                25s
       0 DPushes remaining with DInf 0.0000000e+00                27s

   24809 PPushes remaining with PInf 0.0000000e+00                27s
    6082 PPushes remaining with PInf 0.0000000e+00                30s
       0 PPushes remaining with PInf 0.0000000e+00                35s

  Push phase complete: Pinf 0.0000000e+00, Dinf 4.1804424e-13     35s

Iteration    Objective       Primal Inf.    Dual Inf.      Time
   64426    7.6243297e+01   0.000000e+00   0.000000e+00     45s

Solved in 64426 iterations and 45.29 seconds (38.59 work units)
Optimal objective  7.624329730e+01
Termination condition:  optimal
# ==========================================================
# = Solver Results                                         =
# ==========================================================
# ----------------------------------------------------------
#   Problem Information
# ----------------------------------------------------------
Problem: 
- Name: x1
  Lower bound: 76.24329729860493
  Upper bound: 76.24329729860493
  Number of objectives: 1
  Number of constraints: 3101283
  Number of variables: 2092826
  Number of binary variables: 0
  Number of integer variables: 0
  Number of continuous variables: 2092826
  Number of nonzeros: 7721626
  Sense: minimize
# ----------------------------------------------------------
#   Solver Information
# ----------------------------------------------------------
Solver: 
- Status: ok
  Return code: 0
  Message: Model was solved to optimality (subject to tolerances), and an optimal solution is available.
  Termination condition: optimal
  Termination message: Model was solved to optimality (subject to tolerances), and an optimal solution is available.
  Wall time: 45.28730607032776
  Error rc: 0
  Time: 71.03791356086731
# ----------------------------------------------------------
#   Solution Information
# ----------------------------------------------------------
Solution: 
- number of solutions: 0
  number of solutions displayed: 0
Solving                               ...  172 s
Objective function value                   76.24 M€
Objective function value                   76.24329729860493
Writing         cost summary results  ...  0 s
Writing         cost summary results  ...  0 s
Writing           investment results  ...  0 s
